%mem=80GB
%nprocshared=20
%chk=N.chk
# m062x def2svp geom=check

T

0 1



