%nprocshared=20
%mem=80GB
%chk=E1.chk
# opt freq def2svp m062x

Title Card Required

0 1
 O                  6.52937000   -1.41796000    0.41261000
 C(Iso=1)           6.18168000   -1.97699000   -0.61486000
 O(Iso=2)           5.41808000   -1.45840000   -1.60952000
 C(Iso=3)           4.93421000   -0.12093000   -1.45332000
 C(Iso=4)           5.36425000    0.67890000   -2.64957000
 C(Iso=5)           6.09030000    1.80564000   -2.56260000
 C                  6.56768000    2.62427000   -3.71870000
 O                  7.98721000    2.63787000   -3.64419000
 C                  8.56777000    3.39580000   -4.70136000
 C                 10.07654000    3.36634000   -4.64038000
 C                 10.77716000    2.66392000   -3.65024000
 C                 12.17338000    2.65132000   -3.63891000
 C                 12.88708000    3.34004000   -4.61457000
 C                 12.20471000    4.04833000   -5.60133000
 C                 10.80661000    4.06012000   -5.61566000
 O                  6.47663000   -3.25631000   -0.96676000
 C                  7.29317000   -3.99603000   -0.05831000
 H                  5.25048000    0.34762000   -0.51563000
 H                  3.83939000   -0.16819000   -1.44793000
 H                  5.06283000    0.29878000   -3.62358000
 H                  6.39633000    2.17015000   -1.58465000
 H                  6.18287000    3.64630000   -3.62610000
 H                  6.24332000    2.20575000   -4.67822000
 H                  8.22870000    4.43555000   -4.62392000
 H                  8.24867000    2.97543000   -5.66232000
 H                 10.23999000    2.11499000   -2.87913000
 H                 12.70202000    2.09809000   -2.86846000
 H                 13.97392000    3.32583000   -4.60797000
 H                 12.75837000    4.58463000   -6.36367000
 H                 10.29429000    4.61486000   -6.39592000
 H                  7.40868000   -5.00354000   -0.47181000
 H                  6.81862000   -4.08537000    0.92396000
 H                  8.28720000   -3.54707000    0.02462000

