%nprocshared=20
%mem=80GB
%chk=E12.chk
# opt freq def2svp m062x

Title Card Required

0 1
 C                  1.03875000   -0.89435000    0.72182000
 C(Iso=5)           2.53182000   -0.89558000    0.72925000
 C(Iso=4)           3.27109000    0.15990000    1.10618000
 C(Iso=3)           4.76934000    0.17489000    1.10326000
 O(Iso=2)           5.21426000    0.40200000    2.44239000
 C(Iso=1)           5.98738000   -0.57123000    2.97741000
 O                  6.33550000   -1.60714000    2.42943000
 O                  6.32856000   -0.19761000    4.23752000
 C                  7.14977000   -1.14902000    4.91103000
 H                  0.66956000   -1.87103000    0.39225000
 H                  0.65292000   -0.14091000    0.02842000
 H                  0.64059000   -0.70722000    1.72357000
 H                  3.02100000   -1.81462000    0.41238000
 H                  2.78216000    1.07628000    1.42936000
 H                  5.11703000    1.01511000    0.49305000
 H                  5.17794000   -0.73757000    0.65532000
 H                  7.38386000   -0.75686000    5.90413000
 H                  8.08946000   -1.29940000    4.36924000
 H                  6.61670000   -2.09781000    5.03042000

