%nprocshared=20
%mem=80GB
%chk=E14.chk
# opt freq def2svp m062x

Title Card Required

0 1
 C                  1.02465000    0.06696000   -0.06819000
 C                  2.51875000    0.08907000   -0.06313000
 C                  3.22971000    1.12302000    0.40995000
 C(Iso=5)           4.67354000    1.14644000    0.41958000
 C(Iso=4)           5.37896000    2.16801000    0.92832000
 C(Iso=3)           6.87628000    2.22977000    0.95534000
 O(Iso=2)           7.36273000    1.71163000    2.19620000
 C(Iso=1)           7.36842000    2.58379000    3.23014000
 O                  6.99813000    3.74860000    3.19498000
 O                  7.85450000    1.94341000    4.32351000
 C                  7.87870000    2.74955000    5.49943000
 H                  0.66692000   -0.87335000   -0.49985000
 H                  0.62366000    0.88585000   -0.67334000
 H                  0.62845000    0.13883000    0.94945000
 H                  3.02017000   -0.78860000   -0.46403000
 H                  2.70924000    1.99063000    0.81237000
 H                  5.19397000    0.28194000    0.01167000
 H                  4.86852000    3.03059000    1.35191000
 H                  7.23022000    3.25281000    0.77957000
 H                  7.30614000    1.61514000    0.15674000
 H                  8.29529000    2.15101000    6.31464000
 H                  6.86239000    3.04976000    5.77602000
 H                  8.51582000    3.62690000    5.35340000

