%nprocshared=20
%mem=80GB
%chk=E18.chk
# opt freq def2svp m062x

Title Card Required

0 1
 C                  3.25381000    2.40115000    2.21635000
 C                  3.60916000    2.05612000    3.65175000
 O                  4.90080000    1.44047000    3.66027000
 C(Iso=1)           4.89623000    0.10549000    3.42619000
 O                  3.91294000   -0.62017000    3.42661000
 O(Iso=2)           6.15853000   -0.26296000    3.11411000
 C(Iso=3)           6.30737000   -1.61865000    2.69399000
 C(Iso=4)           6.55668000   -2.46584000    3.89794000
 C(Iso=5)           7.78496000   -2.74704000    4.35937000
 C                  8.05070000   -3.55697000    5.55359000
 C                  9.25327000   -4.26695000    5.62554000
 C                  9.56137000   -5.03638000    6.75370000
 C                  8.67878000   -5.09696000    7.82649000
 O                  8.85821000   -5.81425000    8.97806000
 C                 10.06717000   -6.55401000    9.08477000
 C                  7.48778000   -4.37382000    7.76898000
 C                  7.17702000   -3.60203000    6.64552000
 H                  2.27386000    2.87987000    2.15554000
 H                  3.24827000    1.50401000    1.58750000
 H                  4.00657000    3.07450000    1.79154000
 H                  2.84788000    1.41700000    4.11337000
 H                  3.67400000    2.96927000    4.25169000
 H                  7.15598000   -1.65465000    2.00255000
 H                  5.43786000   -1.97918000    2.13084000
 H                  5.66664000   -2.84788000    4.39201000
 H                  8.65790000   -2.35719000    3.84252000
 H                  9.96101000   -4.23689000    4.80010000
 H                 10.50692000   -5.57395000    6.75362000
 H                 10.04946000   -7.08596000   10.04057000
 H                 10.93510000   -5.88637000    9.08940000
 H                 10.14738000   -7.30226000    8.28942000
 H                  6.79471000   -4.40486000    8.60640000
 H                  6.25056000   -3.03466000    6.64495000

