%nprocshared=20
%mem=80GB
%chk=E2.chk
# opt freq def2svp m062x

Title Card Required

0 1
 C                  2.03397000    2.68855000   -3.62573000
 C                  2.27020000    1.49882000   -2.71153000
 O                  2.96542000    1.95376000   -1.54405000
 C(Iso=1)           4.31599000    2.01737000   -1.67309000
 O                  4.96714000    1.53084000   -2.58376000
 O(Iso=2)           4.79803000    2.76787000   -0.65574000
 C(Iso=3)           6.19173000    3.07188000   -0.72534000
 C(Iso=4)           6.35786000    4.52277000   -1.06039000
 C(Iso=5)           7.01547000    4.97059000   -2.14251000
 C                  7.20154000    6.36050000   -2.37142000
 C                  7.86943000    6.98410000   -3.42368000
 C                  7.82542000    8.38225000   -3.20836000
 C                  7.12975000    8.55424000   -2.03970000
 O                  6.75051000    7.35804000   -1.53234000
 H                  1.50678000    2.39031000   -4.53540000
 H                  2.98120000    3.16105000   -3.90610000
 H                  1.44467000    3.45245000   -3.10761000
 H                  2.81434000    0.69874000   -3.22540000
 H                  1.31212000    1.08078000   -2.38642000
 H                  6.73983000    2.42567000   -1.42001000
 H                  6.61123000    2.88993000    0.26915000
 H                  5.93107000    5.22585000   -0.34819000
 H                  7.43873000    4.27219000   -2.85904000
 H                  8.34293000    6.47380000   -4.25110000
 H                  8.24934000    9.16123000   -3.82345000
 H                  6.83643000    9.42108000   -1.46373000

