%nprocshared=20
%mem=80GB
%chk=E20.chk
# opt freq def2svp m062x

Title Card Required

0 1
 C                  2.37677000    0.04449000   -2.43658000
 C                  3.23081000    0.05368000   -1.17806000
 C                  3.76642000    1.45512000   -0.88066000
 C                  4.63289000    1.47158000    0.38121000
 C(Iso=5)           5.14394000    2.85478000    0.67031000
 C(Iso=4)           6.44387000    3.19282000    0.70597000
 C(Iso=3)           6.92794000    4.58225000    0.99973000
 O(Iso=2)           7.11622000    5.27279000   -0.23970000
 C(Iso=1)           6.38683000    6.40357000   -0.39546000
 O                  6.65382000    6.93506000   -1.61839000
 C                  5.92968000    8.13536000   -1.89092000
 O                  5.61213000    6.88232000    0.42274000
 H                  2.00250000   -0.96450000   -2.63588000
 H                  2.95727000    0.36936000   -3.30609000
 H                  1.51526000    0.71160000   -2.33046000
 H                  4.06491000   -0.64622000   -1.30418000
 H                  2.63091000   -0.30446000   -0.33329000
 H                  2.92365000    2.14829000   -0.76208000
 H                  4.35414000    1.81013000   -1.73644000
 H                  5.46516000    0.76680000    0.26631000
 H                  4.04259000    1.13191000    1.24097000
 H                  4.39095000    3.62210000    0.84658000
 H                  7.20789000    2.43859000    0.53429000
 H                  7.89897000    4.52495000    1.50506000
 H                  6.24513000    5.09186000    1.68991000
 H                  6.20514000    8.48653000   -2.88970000
 H                  6.19117000    8.91572000   -1.16852000
 H                  4.85157000    7.94596000   -1.87905000

