%nprocshared=20
%mem=80GB
%chk=E21.chk
# opt freq def2svp m062x

Title Card Required

0 1
 C                  0.91786000   -1.02112000   -1.04075000
 C                  2.43840000   -1.04823000   -1.05538000
 C                  2.99515000   -1.41167000    0.32213000
 C(Iso=5)           4.49543000   -1.43888000    0.32330000
 C(Iso=4)           5.21435000   -2.54112000    0.61411000
 C(Iso=3)           6.71173000   -2.60396000    0.63465000
 O(Iso=2)           7.21239000   -2.99162000   -0.65282000
 C(Iso=1)           7.19897000   -4.33078000   -0.89422000
 O                  6.80090000   -5.18875000   -0.12253000
 O                  7.69881000   -4.57232000   -2.13605000
 C                  7.70184000   -5.95961000   -2.49881000
 H                  0.53070000   -0.76140000   -2.03073000
 H                  0.54722000   -0.27991000   -0.32484000
 H                  0.51216000   -1.99931000   -0.76234000
 H                  2.81243000   -0.06579000   -1.36786000
 H                  2.77811000   -1.77517000   -1.80292000
 H                  2.59185000   -2.38555000    0.63014000
 H                  2.65659000   -0.67876000    1.06323000
 H                  5.00804000   -0.51531000    0.07247000
 H                  4.70104000   -3.46103000    0.87895000
 H                  7.05677000   -3.28768000    1.42116000
 H                  7.13161000   -1.62106000    0.88415000
 H                  8.11969000   -6.05067000   -3.50669000
 H                  6.68365000   -6.36193000   -2.51801000
 H                  8.33008000   -6.54435000   -1.81854000

