%nprocshared=20
%mem=80GB
%chk=E22.chk
# opt freq def2svp m062x

Title Card Required

0 1
 O                  1.51559000    0.54981000    0.74894000
 C                  2.93179000    0.49541000    0.76221000
 C(Iso=5)           3.43337000    1.57510000   -0.13601000
 C(Iso=4)           4.22216000    1.36590000   -1.20193000
 C(Iso=3)           4.72554000    2.44153000   -2.11398000
 O(Iso=2)           6.15596000    2.40514000   -2.08158000
 C(Iso=1)           6.77503000    2.21091000   -3.27010000
 O                  8.11493000    2.19559000   -3.05292000
 C                  8.88308000    1.97423000   -4.23420000
 O                  6.23151000    2.06605000   -4.35487000
 H                  1.20404000   -0.17907000    1.31061000
 H                  3.25177000   -0.49860000    0.43445000
 H                  3.28241000    0.66363000    1.78530000
 H                  3.11872000    2.58446000    0.11792000
 H                  4.52314000    0.35235000   -1.45837000
 H                  4.41377000    3.43482000   -1.77288000
 H                  4.30812000    2.28884000   -3.11554000
 H                  9.94134000    1.98817000   -3.96087000
 H                  8.70435000    2.76917000   -4.96496000
 H                  8.65007000    0.99435000   -4.66292000

