%nprocshared=20
%mem=80GB
%chk=E24.chk
# opt freq def2svp m062x

Title Card Required

0 1
 C                  3.94922000    3.94567000    0.71078000
 O                  4.17706000    3.52954000   -0.63344000
 C(Iso=1)           4.58317000    2.24040000   -0.74258000
 O                  4.73018000    1.45715000    0.18480000
 O(Iso=2)           4.80850000    1.97991000   -2.05090000
 C(Iso=3)           5.27292000    0.66074000   -2.34022000
 C(Iso=4)           6.75043000    0.57946000   -2.09758000
 C(Iso=5)           7.68237000    0.77017000   -3.04460000
 C                  9.12978000    0.66444000   -2.80717000
 C                  9.66616000   -0.23527000   -1.87537000
 C                 11.04805000   -0.34537000   -1.69722000
 C                 11.90689000    0.44465000   -2.46776000
 N                 13.35892000    0.32544000   -2.28827000
 O                 13.77083000   -0.47325000   -1.43504000
 O                 14.08780000    1.02945000   -3.00186000
 C                 11.39133000    1.34003000   -3.41276000
 C                 10.00566000    1.44242000   -3.58048000
 H                  3.61924000    4.98766000    0.69267000
 H                  4.87568000    3.88605000    1.29093000
 H                  3.16277000    3.34081000    1.17286000
 H                  5.03930000    0.45408000   -3.39036000
 H                  4.73876000   -0.09434000   -1.75067000
 H                  7.03271000    0.34973000   -1.07357000
 H                  7.37992000    1.04414000   -4.05306000
 H                  9.01504000   -0.87267000   -1.28186000
 H                 11.43065000   -1.05247000   -0.96362000
 H                 12.04622000    1.95776000   -4.02333000
 H                  9.61608000    2.14197000   -4.31809000

