%nprocshared=20
%mem=80GB
%chk=E30.chk
# opt freq def2svp m062x

Title Card Required

0 1
 C                  0.93775000    3.16294000    0.44186000
 C                  2.43046000    3.17630000    0.43707000
 C                  3.15509000    2.50844000   -0.46836000
 C(Iso=5)           4.59886000    2.52849000   -0.47572000
 C(Iso=4)           5.32379000    1.89799000   -1.40735000
 C(Iso=3)           6.81688000    1.94120000   -1.45484000
 O(Iso=2)           7.21241000    3.02345000   -2.29617000
 C(Iso=1)           7.32493000    2.71335000   -3.60680000
 O                  7.08398000    1.62724000   -4.11296000
 O                  7.83992000    3.79226000   -4.24544000
 C                  8.39820000    3.51128000   -5.53197000
 C                  9.83586000    3.06765000   -5.33187000
 H                  0.56402000    3.76881000    1.27372000
 H                  0.55854000    2.14497000    0.57234000
 H                  0.53889000    3.58580000   -0.48525000
 H                  2.91544000    3.76506000    1.20953000
 H                  2.65790000    1.93077000   -1.24299000
 H                  5.10034000    3.10970000    0.29624000
 H                  4.84079000    1.33316000   -2.20295000
 H                  7.23085000    0.98171000   -1.78838000
 H                  7.23870000    2.12762000   -0.46095000
 H                  8.36542000    4.43453000   -6.11884000
 H                  7.81676000    2.75852000   -6.07739000
 H                 10.40472000    3.84981000   -4.81663000
 H                 10.31868000    2.84646000   -6.28544000
 H                  9.88553000    2.17666000   -4.69609000

