%nprocshared=20
%mem=80GB
%chk=E31.chk
# opt freq def2svp m062x

Title Card Required

0 1
 C                  3.95615000    4.25705000   -1.20630000
 O                  4.20124000    3.31731000   -2.25006000
 C(Iso=1)           4.61112000    2.10777000   -1.79081000
 O                  4.75657000    1.80939000   -0.61348000
 O(Iso=2)           4.83546000    1.29653000   -2.84926000
 C(Iso=3)           5.29013000   -0.01597000   -2.51028000
 C(Iso=4)           6.76560000    0.00979000   -2.24092000
 C(Iso=5)           7.69998000   -0.17700000   -3.18821000
 C                  9.13840000   -0.17266000   -2.89174000
 C                  9.81668000    1.05531000   -2.91181000
 C                 11.18846000    1.11967000   -2.64846000
 C                 11.89773000   -0.04030000   -2.34688000
 C                 11.23919000   -1.26916000   -2.32771000
 C                  9.86905000   -1.33865000   -2.60992000
 Br                 9.07146000   -3.06431000   -2.63808000
 H                  3.62496000    5.19528000   -1.65898000
 H                  4.87388000    4.45113000   -0.64132000
 H                  3.16303000    3.89671000   -0.54247000
 H                  5.05988000   -0.67665000   -3.35399000
 H                  4.73801000   -0.41894000   -1.65096000
 H                  7.05259000    0.17595000   -1.20352000
 H                  7.42819000   -0.32337000   -4.22825000
 H                  9.28122000    1.97292000   -3.14680000
 H                 11.70364000    2.07662000   -2.68292000
 H                 12.96317000    0.01037000   -2.13690000
 H                 11.80433000   -2.17009000   -2.10163000

