%nprocshared=20
%mem=80GB
%chk=E32.chk
# opt freq def2svp m062x

Title Card Required

0 1
 C                  1.13427000    0.34041000    1.13407000
 C(Iso=5)           2.62848000    0.34939000    1.13940000
 C(Iso=4)           3.37536000    1.18004000    0.39351000
 C(Iso=3)           4.87609000    1.19576000    0.41028000
 O(Iso=2)           5.31487000    2.50578000    0.78942000
 C(Iso=1)           6.09454000    2.57030000    1.89617000
 O                  6.42995000    3.86837000    2.12012000
 C                  7.24309000    4.05772000    3.27663000
 O                  6.44822000    1.62399000    2.58394000
 H                  0.76670000   -0.41494000    1.83630000
 H                  0.74307000    0.09133000    0.14304000
 H                  0.73677000    1.30917000    1.45168000
 H                  3.11315000   -0.36050000    1.80732000
 H                  2.89203000    1.88724000   -0.27726000
 H                  5.24692000    0.99668000   -0.60073000
 H                  5.27049000    0.40463000    1.05796000
 H                  7.46035000    5.12510000    3.38095000
 H                  8.19577000    3.52462000    3.17366000
 H                  6.71600000    3.72715000    4.17881000

