%nprocshared=20
%mem=80GB
%chk=E33.chk
# opt freq def2svp m062x

Title Card Required

0 1
 O                  9.62442000   -2.03032000   -2.22573000
 C(Iso=1)           8.93612000   -1.20679000   -2.80184000
 O                  8.73513000   -1.14579000   -4.14651000
 C                  9.40732000   -2.15597000   -4.89059000
 O(Iso=2)           8.22340000   -0.20670000   -2.23597000
 C(Iso=3)           8.27146000   -0.11189000   -0.80777000
 C(Iso=4)           8.73270000    1.26984000   -0.46116000
 C(Iso=5)           9.77592000    1.53620000    0.34016000
 C                 10.30570000    2.84730000    0.64788000
 C                  9.71165000    4.02695000    0.40814000
 C                 10.36139000    5.35502000    0.64725000
 O                  9.95634000    5.82850000    1.92523000
 C                 10.58142000    7.05535000    2.39752000
 C                 10.15369000    8.18446000    1.40084000
 C                  8.96929000    8.92562000    1.56058000
 C                  8.68147000   10.01610000    0.72984000
 C                  9.53723000   10.35281000   -0.31580000
 C                 10.65157000    9.56587000   -0.57054000
 C                 10.93939000    8.48434000    0.26223000
 C                 10.06074000    7.25518000    3.86444000
 C                  9.72732000    6.14042000    4.66449000
 C                  9.38947000    6.28314000    6.01393000
 C                  9.36146000    7.54610000    6.59565000
 C                  9.68554000    8.66368000    5.83217000
 C                 10.05295000    8.51871000    4.48952000
 C                 12.12995000    6.89570000    2.55474000
 C                 13.00372000    7.99824000    2.44712000
 C                 14.38495000    7.84358000    2.55470000
 C                 14.92227000    6.59621000    2.84837000
 C                 14.07889000    5.50595000    3.04087000
 C                 12.69670000    5.65328000    2.89974000
 H                  9.12921000   -2.04018000   -5.94358000
 H                  9.09889000   -3.15342000   -4.56342000
 H                 10.49267000   -2.03714000   -4.80612000
 H                  8.89705000   -0.87951000   -0.34130000
 H                  7.24856000   -0.24688000   -0.43938000
 H                  8.16351000    2.07452000   -0.91885000
 H                 10.33848000    0.70888000    0.77192000
 H                 11.28555000    2.84056000    1.12395000
 H                  8.72770000    4.07681000   -0.04765000
 H                 10.02474000    6.02637000   -0.14579000
 H                 11.44886000    5.25741000    0.57240000
 H                  8.26668000    8.68586000    2.35667000
 H                  7.78949000   10.61181000    0.90870000
 H                  9.32735000   11.21598000   -0.94140000
 H                 11.30828000    9.79515000   -1.40582000
 H                 11.81573000    7.88365000    0.02180000
 H                  9.76033000    5.13616000    4.24544000
 H                  9.16415000    5.40363000    6.61254000
 H                  9.10158000    7.65779000    7.64482000
 H                  9.67265000    9.65113000    6.28608000
 H                 10.34317000    9.41069000    3.93879000
 H                 12.61750000    8.99780000    2.25572000
 H                 15.03681000    8.70205000    2.41482000
 H                 15.99846000    6.47780000    2.94609000
 H                 14.49522000    4.53625000    3.30468000
 H                 12.05833000    4.78926000    3.06620000

