%nprocshared=20
%mem=80GB
%chk=E34.chk
# opt freq def2svp m062x

Title Card Required

0 1
 O                  4.81936000    2.14386000    0.83374000
 C(Iso=1)           3.86915000    1.73923000    1.48792000
 O(Iso=2)           3.54714000    0.44629000    1.73360000
 C(Iso=3)           4.38049000   -0.54810000    1.13271000
 C(Iso=4)           4.85387000   -1.48189000    2.20821000
 C(Iso=5)           6.15599000   -1.70413000    2.45776000
 C                  6.70308000   -2.64368000    3.45018000
 C                  6.06029000   -3.83578000    3.80928000
 C                  6.67396000   -4.74071000    4.68237000
 C                  7.93760000   -4.46703000    5.20197000
 C                  8.58666000   -3.28537000    4.85527000
 C                  7.97367000   -2.38182000    3.98343000
 O                  2.93032000    2.51212000    2.09252000
 C                  3.12427000    3.91654000    1.94184000
 H                  5.21650000   -0.12701000    0.56457000
 H                  3.75978000   -1.11312000    0.42936000
 H                  4.08106000   -1.98926000    2.77576000
 H                  6.90465000   -1.16019000    1.88512000
 H                  5.08726000   -4.08919000    3.39732000
 H                  6.17030000   -5.66778000    4.94482000
 H                  8.41892000   -5.17654000    5.86995000
 H                  9.57447000   -3.06870000    5.25372000
 H                  8.50347000   -1.46944000    3.71849000
 H                  2.28701000    4.42457000    2.43147000
 H                  3.12733000    4.20219000    0.88510000
 H                  4.05074000    4.22917000    2.43308000

