%nprocshared=20
%mem=80GB
%chk=E36.chk
# opt freq def2svp m062x

Title Card Required

0 1
 C                  3.79682000    3.99949000   -0.55184000
 O                  4.03249000    3.19923000   -1.70744000
 C(Iso=1)           4.42518000    1.93283000   -1.41898000
 O                  4.55366000    1.46472000   -0.29687000
 O(Iso=2)           4.65802000    1.28722000   -2.58560000
 C(Iso=3)           5.11418000   -0.06122000   -2.45727000
 C(Iso=4)           6.58756000   -0.07402000   -2.17960000
 C(Iso=5)           7.53000000   -0.13314000   -3.13520000
 C                  8.98598000   -0.15074000   -2.88986000
 C                  9.52840000    0.51770000   -1.77733000
 C                 10.90435000    0.52911000   -1.53736000
 C                 11.76618000   -0.11549000   -2.41523000
 C                 11.25308000   -0.76276000   -3.53727000
 C                  9.86925000   -0.78467000   -3.79204000
 C                  9.38257000   -1.49718000   -5.02633000
 H                  3.48616000    4.99421000   -0.88272000
 H                  4.71469000    4.10216000    0.03608000
 H                  2.99398000    3.56999000    0.05554000
 H                  4.89093000   -0.57217000   -3.40060000
 H                  4.56158000   -0.59982000   -1.67767000
 H                  6.85727000   -0.04477000   -1.12722000
 H                  7.21992000   -0.16274000   -4.17629000
 H                  8.88513000    1.05149000   -1.08157000
 H                 11.29918000    1.04620000   -0.66685000
 H                 12.83732000   -0.10956000   -2.23234000
 H                 11.94421000   -1.25452000   -4.21888000
 H                 10.21140000   -1.94495000   -5.58530000
 H                  8.88093000   -0.79540000   -5.70033000
 H                  8.69606000   -2.30519000   -4.75472000

