%nprocshared=20
%mem=80GB
%chk=E6.chk
# opt freq def2svp m062x

Title Card Required

0 1
 C                  2.84915000    2.40385000    4.29623000
 O                  3.54795000    1.69186000    3.27684000
 C(Iso=1)           4.04085000    2.49898000    2.30169000
 O                  3.90472000    3.71280000    2.25748000
 O(Iso=2)           4.69101000    1.73059000    1.39608000
 C(Iso=3)           5.25552000    2.43468000    0.28790000
 C(Iso=4)           6.73113000    2.17103000    0.25949000
 C(Iso=5)           7.66309000    3.13160000    0.37050000
 C                  9.15189000    2.88595000    0.31863000
 C                  9.78020000    3.67001000   -0.83421000
 C                  9.80632000    3.28263000    1.64174000
 H                  2.48443000    1.68329000    5.03308000
 H                  1.98779000    2.93377000    3.87596000
 H                  3.52268000    3.10381000    4.80151000
 H                  5.04754000    3.51003000    0.30282000
 H                  4.80291000    2.03443000   -0.62551000
 H                  7.02985000    1.13272000    0.12839000
 H                  7.34751000    4.16560000    0.51061000
 H                  9.34650000    1.81930000    0.14933000
 H                  9.63261000    4.74973000   -0.71521000
 H                  9.34599000    3.37436000   -1.79551000
 H                 10.85873000    3.48416000   -0.88400000
 H                  9.66818000    4.34858000    1.85637000
 H                 10.88355000    3.08461000    1.61238000
 H                  9.38501000    2.71239000    2.47672000

