%nprocshared=20
%mem=80GB
%chk=E7.chk
# opt freq def2svp m062x

Title Card Required

0 1
 C                  3.83321000   -2.57793000    2.84657000
 O                  4.06996000   -1.21557000    3.19512000
 C(Iso=1)           4.49828000   -0.45581000    2.15712000
 O                  4.66551000   -0.84387000    1.00937000
 O(Iso=2)           4.71639000    0.80059000    2.61392000
 C(Iso=3)           5.19413000    1.73425000    1.64238000
 C(Iso=4)           6.66977000    1.55838000    1.45741000
 C(Iso=5)           7.61130000    2.23486000    2.13541000
 C                  9.05560000    2.03048000    1.94841000
 C                  9.93390000    3.09493000    2.18981000
 C                 11.31443000    2.93057000    2.03342000
 C                 11.82456000    1.69345000    1.64559000
 Br                13.68778000    1.46891000    1.42577000
 C                 10.96984000    0.61868000    1.42308000
 C                  9.59131000    0.78641000    1.58310000
 H                  3.48535000   -3.10288000    3.74030000
 H                  4.75907000   -3.05272000    2.50541000
 H                  3.05602000   -2.64936000    2.07888000
 H                  4.96300000    2.73866000    2.01159000
 H                  4.66530000    1.62421000    0.68724000
 H                  6.94761000    0.82586000    0.70294000
 H                  7.32155000    2.97524000    2.87801000
 H                  9.55222000    4.06786000    2.49287000
 H                 11.97856000    3.77082000    2.21519000
 H                 11.35838000   -0.35266000    1.12958000
 H                  8.94440000   -0.07317000    1.42393000

