%nprocshared=20
%mem=80GB
%chk=N13.chk
# freq def2svp m062x

Title Card Required

0 1
 C                  5.45820100    2.85654400    0.07122800
 C                  4.51592000    1.68262500    0.06279000
 C                  4.17193200    1.02182800    1.24814200
 C                  3.28824600   -0.05441800    1.24136000
 C                  2.74172500   -0.47061000    0.03001000
 S(Iso=2)           1.56832900   -1.81242600    0.02052200
 O                  1.55128500   -2.35437000   -1.32514700
 O                  1.81285900   -2.61822500    1.19875400
 N(Iso=1)           0.08156600   -1.12212700    0.25416200
 C(Iso=3)          -0.47547900   -0.27324700   -0.79028300
 C                 -1.88594500    0.01346500   -0.52000100
 C                 -3.05017600    0.26301800   -0.27351300
 Si                -4.83860200    0.59288000    0.09671500
 C                 -5.17298700    0.04309300    1.85994000
 C                 -5.87857200   -0.38919000   -1.11751000
 C                 -5.15680700    2.43317300   -0.09442700
 C                  3.07865300    0.15586300   -1.16933800
 C                  3.96186700    1.23056100   -1.14257400
 H                  5.93875100    2.97750800    1.05026700
 H                  4.91892900    3.78765800   -0.15956500
 H                  6.24373500    2.73542500   -0.68779400
 H                  4.61182700    1.35065900    2.19191100
 H                  3.03617100   -0.58929400    2.15864000
 H                 -0.07159100   -0.82492800    1.21503100
 H                 -0.38001800   -0.81985000   -1.74016500
 H                  0.07570600    0.68115500   -0.89709800
 H                 -4.95117800   -1.02659900    1.98440000
 H                 -6.22937800    0.20828100    2.12038200
 H                 -4.55161400    0.60693300    2.57066400
 H                 -5.68527800   -1.46656400   -1.01370600
 H                 -5.64859300   -0.09969400   -2.15315100
 H                 -6.95011300   -0.21180600   -0.94003200
 H                 -4.52805700    3.01471700    0.59519600
 H                 -6.21072800    2.66387300    0.12375500
 H                 -4.93836200    2.76565900   -1.11948800
 H                  2.66663500   -0.21993600   -2.10749900
 H                  4.23674000    1.72474100   -2.07707300

