%nprocshared=20
%mem=80GB
%chk=N15.chk
# opt freq def2svp m062x

Title Card Required

0 1
 Na                 1.15526000   -0.13398000    0.04749000
 N(Iso=1)           3.25187000    0.06779000    0.25564000
 C(Iso=2)           3.93207000   -0.83721000   -0.49856000
 O                  5.29715000   -0.92947000   -0.52249000
 C                  6.03979000   -1.76379000   -1.38373000
 C                  5.82832000   -1.33220000   -2.85296000
 C                  7.52720000   -1.63447000   -1.02676000
 C                  5.65157000   -3.25631000   -1.22744000
 O                  3.25612000   -1.59113000   -1.18000000
 C(Iso=3)           3.70572000    1.08412000    1.03687000
 O                  5.02663000    1.36271000    1.18904000
 C                  5.59714000    2.64018000    1.11239000
 C                  4.91375000    3.69805000    2.02283000
 C                  7.07348000    2.54342000    1.53081000
 C                  5.51030000    3.10183000   -0.34984000
 O                  2.86621000    1.77855000    1.58952000
 H                  6.09524000   -0.26370000   -2.99090000
 H                  4.77150000   -1.46804000   -3.16460000
 H                  6.45310000   -1.94625000   -3.53832000
 H                  7.87097000   -0.58263000   -1.10564000
 H                  8.14791000   -2.26045000   -1.70777000
 H                  7.70434000   -1.98865000    0.01246000
 H                  4.60459000   -3.46565000   -1.51887000
 H                  5.79555000   -3.59257000   -0.17950000
 H                  6.28283000   -3.88939000   -1.88968000
 H                  4.93853000    3.39424000    3.09072000
 H                  3.86387000    3.89749000    1.72726000
 H                  5.43496000    4.67756000    1.93138000
 H                  7.15505000    2.23317000    2.59553000
 H                  7.57763000    3.53039000    1.42224000
 H                  7.61182000    1.80267000    0.90476000
 H                  4.44623000    3.18207000   -0.66128000
 H                  6.00690000    2.35583000   -1.00707000
 H                  5.99583000    4.09007000   -0.49112000

