%nprocshared=20
%mem=80GB
%chk=N18.chk
# opt freq def2svp m062x

Title Card Required

0 1
 O                  1.53195000    2.28156000   -0.00903000
 C(Iso=2)           1.14912000    1.12968000   -0.03409000
 N(Iso=1)           1.90172000   -0.00517000   -0.05850000
 C(Iso=3)           1.13978000   -1.13287000   -0.01854000
 C                 -0.25271000   -0.68896000    0.00067000
 C                 -1.42597000   -1.41641000    0.02963000
 C                 -2.62361000   -0.69428000    0.02498000
 C                 -2.61898000    0.71688000   -0.00680000
 C                 -1.41629000    1.43111000   -0.02503000
 C                 -0.24733000    0.69604000   -0.02024000
 O                  1.51117000   -2.28773000    0.00129000
 H                  2.90866000   -0.00985000   -0.06575000
 H                 -1.41435000   -2.50136000    0.05285000
 H                 -3.57363000   -1.22596000    0.04374000
 H                 -3.56574000    1.25453000   -0.01661000
 H                 -1.39864000    2.51637000   -0.04871000

