%nprocshared=20
%mem=80GB
%chk=N19.chk
# opt freq def2svp m062x

Title Card Required

0 1
 C                  2.85454000   -0.54598000   -5.18025000
 C(Iso=3)           2.37687000   -0.88861000   -3.78783000
 O                  1.17700000   -0.93742000   -3.51276000
 N(Iso=1)           3.31346000   -1.15463000   -2.82015000
 C(Iso=2)           4.67001000   -1.13967000   -2.97582000
 O                  5.24448000   -0.81921000   -4.00663000
 O                  5.30284000   -1.51769000   -1.83165000
 C                  6.75292000   -1.59834000   -1.87157000
 C                  7.37929000   -0.21651000   -2.12318000
 C                  7.20591000   -2.06347000   -0.47362000
 C                  7.21934000   -2.65419000   -2.88337000
 H                  1.99833000   -0.36978000   -5.83686000
 H                  3.43070000   -1.37982000   -5.59482000
 H                  3.45619000    0.36810000   -5.16046000
 H                  2.95318000   -1.40594000   -1.91259000
 H                  7.03288000    0.50583000   -1.37455000
 H                  7.10796000    0.20135000   -3.09609000
 H                  8.47179000   -0.25980000   -2.08691000
 H                  6.88562000   -1.35919000    0.30265000
 H                  8.29733000   -2.15781000   -0.42147000
 H                  6.76542000   -3.03413000   -0.21920000
 H                  6.94768000   -2.40294000   -3.91176000
 H                  6.74853000   -3.62112000   -2.67108000
 H                  8.30527000   -2.78129000   -2.86014000

