%nprocshared=20
%mem=80GB
%chk=N20.chk
# opt freq def2svp m062x

Title Card Required

0 1
 N(Iso=1)          -1.87160000   -2.08369000   -0.18331000
 C(Iso=2)          -1.38820000   -0.76875000   -0.00159000
 C                 -2.32301000    0.27616000   -0.03991000
 C                 -1.91561000    1.60628000   -0.00206000
 C                 -0.55909000    1.91261000    0.02887000
 C                  0.40741000    0.89604000    0.01910000
 C                  1.77175000    1.22820000    0.02530000
 C                  2.75179000    0.23754000    0.00634000
 C                  2.37905000   -1.09859000   -0.02451000
 C                  1.02426000   -1.44396000   -0.03869000
 C                  0.00360000   -0.46406000   -0.01124000
 H                 -2.82857000   -2.20727000    0.13066000
 H                 -1.25963000   -2.80020000    0.18660000
 H                 -3.38593000    0.05665000   -0.09775000
 H                 -2.65418000    2.40280000   -0.01435000
 H                 -0.25941000    2.95804000    0.04492000
 H                  2.08470000    2.27023000    0.04138000
 H                  3.80320000    0.51134000    0.01203000
 H                  3.13709000   -1.87730000   -0.04195000
 H                  0.77554000   -2.50094000   -0.07218000

