%nprocshared=20
%mem=80GB
%chk=N23.chk
# opt freq def2svp m062x

Title Card Required

0 1
 C                  2.46729000   -0.70085000   -0.02921000
 C                  2.45218000    0.69025000   -0.08261000
 C                  1.23666000    1.37494000   -0.06037000
 C(Iso=2)           0.02071000    0.68431000    0.01366000
 C                  0.04125000   -0.72000000    0.04389000
 C                  1.26579000   -1.40460000    0.03167000
 C                 -1.24757000   -1.49891000    0.10204000
 C                 -2.43366000   -0.64445000   -0.33167000
 C(Iso=3)          -2.39867000    0.68960000    0.39432000
 N(Iso=1)          -1.16464000    1.41451000    0.13164000
 H                  3.41205000   -1.23573000   -0.02996000
 H                  3.38603000    1.24423000   -0.12323000
 H                  1.24064000    2.46216000   -0.06916000
 H                  1.28601000   -2.49103000    0.07139000
 H                 -1.39513000   -1.85532000    1.12873000
 H                 -1.18537000   -2.37527000   -0.55370000
 H                 -3.36957000   -1.17116000   -0.11317000
 H                 -2.39956000   -0.47821000   -1.41623000
 H                 -2.49563000    0.53473000    1.47550000
 H                 -3.24861000    1.30707000    0.08428000
 H                 -1.23195000    2.17080000   -0.54470000

