%nprocshared=20
%mem=80GB
%chk=N24.chk
# opt freq def2svp m062x

Title Card Required

0 1
 C                  3.13405000    0.56915000    1.38566000
 C                  2.71836000    0.15437000   -0.03627000
 C                  3.09757000   -1.30610000   -0.33688000
 C                  1.18325000    0.26299000   -0.10689000
 O                  3.27609000    1.06223000   -1.04387000
 C(Iso=3)           4.63880000    1.11391000   -1.16566000
 O                  5.39437000    0.45051000   -0.46599000
 N(Iso=1)           5.03794000    1.96373000   -2.15583000
 C(Iso=2)           6.36028000    2.27848000   -2.32196000
 O                  7.31332000    1.70847000   -1.80595000
 O                  6.51072000    3.35792000   -3.13975000
 C                  7.79355000    4.00019000   -3.01427000
 C                  8.71682000    3.80497000   -4.19511000
 C                  8.68085000    4.69628000   -5.27708000
 C                  9.60143000    4.58595000   -6.32242000
 C                 10.56624000    3.58058000   -6.30256000
 C                 10.60674000    2.68090000   -5.23951000
 C                  9.68535000    2.78914000   -4.19235000
 H                  2.67634000   -0.08306000    2.13754000
 H                  2.83007000    1.60172000    1.59124000
 H                  4.21452000    0.52819000    1.54101000
 H                  2.63574000   -1.99428000    0.37820000
 H                  4.17540000   -1.48064000   -0.29117000
 H                  2.78338000   -1.58720000   -1.34823000
 H                  0.70672000   -0.40398000    0.62411000
 H                  0.80565000    0.00089000   -1.10059000
 H                  0.84636000    1.28431000    0.10261000
 H                  4.34662000    2.53002000   -2.61604000
 H                  8.31543000    3.72920000   -2.08655000
 H                  7.58556000    5.07102000   -2.90415000
 H                  7.95103000    5.50281000   -5.29821000
 H                  9.57529000    5.29482000   -7.14603000
 H                 11.28735000    3.50036000   -7.11224000
 H                 11.36606000    1.90281000   -5.21713000
 H                  9.74587000    2.08962000   -3.35940000

