%nprocshared=20
%mem=80GB
%chk=N3.chk
# opt freq def2svp m062x

Title Card Required

0 1
 C                  6.04392000    3.66811000   -0.68188000
 O(Iso=2)           5.22100000    3.15297000    0.36087000
 N(Iso=1)           6.01217000    2.29647000    1.15849000
 C(Iso=3)           5.73923000    0.95437000    1.13106000
 O                  5.05688000    0.56571000    0.02545000
 C                  4.77302000   -0.83833000   -0.20941000
 C                  3.93163000   -1.45210000    0.91772000
 C                  3.94982000   -0.87285000   -1.50750000
 C                  6.07306000   -1.61536000   -0.43374000
 O                  6.13508000    0.21276000    2.02283000
 H                  5.48374000    4.44360000   -1.21126000
 H                  6.29979000    2.87314000   -1.38884000
 H                  6.95498000    4.11697000   -0.27188000
 H                  6.26950000    2.65554000    2.06750000
 H                  3.09946000   -0.79361000    1.19042000
 H                  4.52153000   -1.61317000    1.82491000
 H                  3.52593000   -2.42622000    0.62586000
 H                  3.08522000   -0.20225000   -1.44312000
 H                  3.59091000   -1.88275000   -1.73279000
 H                  4.54836000   -0.52732000   -2.35838000
 H                  6.68977000   -1.64998000    0.46868000
 H                  6.68325000   -1.13240000   -1.20714000
 H                  5.87514000   -2.64738000   -0.74092000

