%nprocshared=20
%mem=80GB
%chk=N38.chk
# opt freq def2svp m062x

Title Card Required

0 1
 C(Iso=3)          -0.73238000    1.21704000    0.23063000
 C                  0.71876000    1.16381000   -0.27205000
 O                  1.37939000   -0.02693000    0.18066000
 C                  0.66739000   -1.18454000   -0.27978000
 C(Iso=2)          -0.77955000   -1.17973000    0.23509000
 N(Iso=1)          -1.50209000    0.03239000   -0.18632000
 H                 -1.22187000    2.11776000   -0.15362000
 H                 -0.73789000    1.27612000    1.32587000
 H                  1.27833000    2.02085000    0.11586000
 H                  0.76172000    1.20518000   -1.36711000
 H                  1.19343000   -2.06851000    0.09426000
 H                  0.69930000   -1.21569000   -1.37558000
 H                 -0.77971000   -1.23258000    1.33024000
 H                 -1.30751000   -2.06227000   -0.14051000
 H                 -2.41804000    0.05144000    0.26117000

