%nprocshared=20
%mem=80GB
%chk=N39.chk
# opt freq def2svp m062x

Title Card Required

0 1
 C                  1.19646000   -0.11432000   -0.16479000
 C                  2.71530000   -0.07592000   -0.12837000
 C                  3.21760000    0.70140000    1.08585000
 C                  4.74157000    0.74223000    1.12599000
 C                  5.21063000    1.51982000    2.34490000
 C                  5.61300000    2.18683000    3.39048000
 C(Iso=3)           6.08206000    2.96442000    4.60938000
 N(Iso=1)           6.49013000    2.09063000    5.69999000
 S(Iso=2)           7.00435000    2.94371000    7.07337000
 O                  7.85347000    2.04719000    7.81400000
 O                  7.48449000    4.23606000    6.61544000
 C                  5.53899000    3.21593000    8.04221000
 C                  4.85230000    2.11180000    8.53644000
 C                  3.71851000    2.28975000    9.33181000
 C                  3.27150000    3.58404000    9.64468000
 C                  2.06754000    3.78782000   10.51850000
 C                  3.96925000    4.68669000    9.14291000
 C                  5.10984000    4.51615000    8.35090000
 H                  0.85106000   -0.67388000   -1.03930000
 H                  0.78129000    0.89700000   -0.22123000
 H                  0.79637000   -0.60023000    0.73085000
 H                  3.08777000    0.38865000   -1.04879000
 H                  3.10281000   -1.10094000   -0.10149000
 H                  2.83526000    0.23913000    2.00506000
 H                  2.82042000    1.72432000    1.06045000
 H                  5.13785000    1.22394000    0.22511000
 H                  5.15291000   -0.27226000    1.17395000
 H                  5.26538000    3.62221000    4.92638000
 H                  6.93690000    3.57328000    4.29476000
 H                  7.22558000    1.44305000    5.41831000
 H                  5.19454000    1.10651000    8.31150000
 H                  3.19296000    1.41601000    9.70741000
 H                  1.64523000    2.83660000   10.85884000
 H                  1.28876000    4.32524000    9.96852000
 H                  2.34489000    4.36585000   11.40613000
 H                  3.62739000    5.69540000    9.37694000
 H                  5.64401000    5.39010000    7.99221000

