%nprocshared=20
%mem=80GB
%chk=N40.chk
# opt freq def2svp m062x

Title Card Required

0 1
 C                 -2.94933000    0.02525000    0.03582000
 C                 -1.45004000    0.02672000    0.02145000
 C                 -0.72934000    1.22417000   -0.00462000
 C                  0.66891000    1.20822000   -0.03800000
 C(Iso=2)           1.37215000    0.00253000   -0.00103000
 N(Iso=1)           2.76206000   -0.00957000   -0.17208000
 C                  0.64936000   -1.19163000   -0.02891000
 C                 -0.74860000   -1.18326000    0.00463000
 H                 -3.35209000    1.04344000    0.03775000
 H                 -3.31783000   -0.48385000    0.93220000
 H                 -3.33417000   -0.48534000   -0.85260000
 H                 -1.24732000    2.17997000   -0.01735000
 H                  1.20472000    2.15174000   -0.09477000
 H                  3.22010000    0.83233000    0.16202000
 H                  3.20696000   -0.85365000    0.17395000
 H                  1.16932000   -2.14433000   -0.07951000
 H                 -1.28594000   -2.12863000   -0.00165000

