%nprocshared=20
%mem=80GB
%chk=N41.chk
# opt freq def2svp m062x

Title Card Required

0 1
 N(Iso=1)           2.36272000    0.00371000   -0.17723000
 C(Iso=2)           0.97467000    0.00900000   -0.00365000
 C                  0.26617000    1.21198000   -0.03296000
 C                 -1.13234000    1.22248000    0.00030000
 C                 -1.85220000    0.02073000    0.01923000
 C                 -3.36047000    0.00893000    0.03166000
 F                 -3.91696000    1.25275000    0.03247000
 F                 -3.88599000   -0.63224000   -1.04940000
 F                 -3.86882000   -0.62636000    1.12431000
 C                 -1.14078000   -1.18741000   -0.00122000
 C                  0.25750000   -1.18852000   -0.03493000
 H                  2.82359000    0.84451000    0.15609000
 H                  2.81720000   -0.84134000    0.15439000
 H                  0.79903000    2.15812000   -0.08527000
 H                 -1.65505000    2.17747000   -0.00783000
 H                 -1.67433000   -2.13693000   -0.01136000
 H                  0.78324000   -2.13845000   -0.08900000

