%nprocshared=20
%mem=80GB
%chk=N45.chk
# opt freq def2svp m062x

Title Card Required

0 1
 C                  1.33432000   -0.60798000   -0.08532000
 O                  2.52756000    0.16074000   -0.16757000
 C                  3.17178000    0.42523000    1.01062000
 C                  2.74722000    0.03491000    2.28067000
 C                  3.50546000    0.36417000    3.41142000
 C                  4.69596000    1.09240000    3.28955000
 C(Iso=2)           5.49563000    1.47698000    4.50836000
 N(Iso=1)           6.85730000    0.95880000    4.45341000
 C                  5.11149000    1.48540000    2.01068000
 C                  4.35529000    1.15274000    0.88315000
 H                  0.97824000   -0.78632000   -1.10539000
 H                  0.55286000   -0.06044000    0.45118000
 H                  1.52011000   -1.58465000    0.37470000
 H                  1.83058000   -0.52520000    2.42954000
 H                  3.15229000    0.04761000    4.39026000
 H                  5.01055000    1.10363000    5.41766000
 H                  5.52020000    2.57007000    4.58515000
 H                  6.81897000   -0.05923000    4.41317000
 H                  7.33984000    1.19673000    5.31654000
 H                  6.03382000    2.05034000    1.88927000
 H                  4.69564000    1.46341000   -0.10151000

