%nprocshared=20
%mem=80GB
%chk=N7.chk
# opt freq def2svp m062x

Title Card Required

0 1
 C                  1.34447000   -0.51667000   -0.74152000
 O                  2.50071000   -0.01714000   -0.08091000
 C                  3.18420000   -0.89839000    0.71037000
 C                  2.82519000   -2.22078000    0.96464000
 C                  3.61738000   -3.01637000    1.80200000
 C(Iso=2)           4.79720000   -2.51990000    2.35917000
 N(Iso=1)           5.51196000   -3.28246000    3.28988000
 C                  5.11647000   -1.17792000    2.15217000
 C                  4.32894000   -0.37947000    1.31661000
 H                  0.91842000    0.29800000   -1.33483000
 H                  0.58404000   -0.83513000   -0.02074000
 H                  1.60371000   -1.32944000   -1.42827000
 H                  1.92903000   -2.66286000    0.54360000
 H                  3.29960000   -4.03346000    2.01425000
 H                  5.42688000   -4.28400000    3.14794000
 H                  6.47845000   -2.99112000    3.39766000
 H                  5.98312000   -0.73752000    2.63745000
 H                  4.60385000    0.65887000    1.14945000

