%nprocshared=20
%mem=80GB
%chk=E15.chk
# opt freq scrf=(smd,solvent=thf) def2svp m062x

Title Card Required

0 1
 C                 -1.82620659    2.82824498   -0.84654392
 C                 -0.44354945    3.03749619   -0.93816890
 C                  0.15775994    4.07472085   -0.21255606
 C                 -0.62358848    4.90269722    0.60467815
 C                 -2.00624566    4.69344619    0.69630288
 C                 -2.60755458    3.65621952   -0.02930746
 H                 -2.28531933    2.03629955   -1.40056371
 H                  0.15302697    2.40531974   -1.56214765
 H                 -2.60282236    5.32562383    1.32028019
 C(Iso=4)           1.67716425    4.30466353   -0.31323826
 H                  2.13627760    5.09660638    0.24078473
 C(Iso=3)           2.43275415    3.50398210   -1.10352944
 H                  1.97364073    2.71203945   -1.65755266
 C(Iso=2)           3.95215911    3.73392198   -1.20420826
 H                  4.45047665    3.15942235   -0.45152650
 H                  4.16604459    4.77239098   -1.06021137
 O(Iso=1)           4.41121242    3.32736626   -2.49606063
 C                  5.82208849    3.54088163   -2.58954804
 O                  6.36204049    4.47226457   -1.93797440
 O                  6.61938308    2.69600577   -3.42345820
 C                  7.93732767    2.59448167   -2.87791737
 C                  8.79595259    1.68461537   -3.77597448
 H                  8.81788718    2.08198196   -4.76921094
 H                  9.79216042    1.63835020   -3.38825101
 H                  8.37438693    0.70133434   -3.79443595
 C                  8.57350126    3.99522203   -2.80856605
 H                  8.06167015    4.65302657   -3.47955196
 H                  8.49622705    4.37302712   -1.81047186
 H                  9.60462314    3.93285366   -3.08748869
 C                  7.86185411    1.99427398   -1.46170606
 H                  7.05612057    1.29180197   -1.41451996
 H                  8.78203196    1.49730327   -1.23544771
 H                  7.69497040    2.77668949   -0.75115994
 H                 -3.66324382    3.49645087    0.04065112
 O                 -0.01000760    5.96109038    1.34509858
 C                 -0.99978428    6.62992299    2.13116797
 H                 -1.45916985    5.92980399    2.79727478
 H                 -0.53728972    7.41079633    2.69794447
 H                 -1.74349512    7.04962361    1.48646216

