%nprocshared=20
%mem=80GB
%chk=E2.chk
# opt freq scrf=(smd,solvent=thf) def2svp m062x

Title Card Required

0 1
 C                 -1.82620659    2.82824498   -0.84654392
 C                 -0.44354945    3.03749619   -0.93816890
 C                  0.15775994    4.07472085   -0.21255606
 C                 -0.62358848    4.90269722    0.60467815
 C                 -2.00624566    4.69344619    0.69630288
 C                 -2.60755458    3.65621952   -0.02930746
 H                 -2.28531933    2.03629955   -1.40056371
 H                  0.15302697    2.40531974   -1.56214765
 H                 -0.16447552    5.69464175    1.15869903
 H                 -2.60282236    5.32562383    1.32028019
 C(Iso=4)           1.67716425    4.30466353   -0.31323826
 H                  2.13627760    5.09660638    0.24078473
 C(Iso=3)           2.43275415    3.50398210   -1.10352944
 H                  1.97364073    2.71203945   -1.65755266
 C(Iso=2)           3.95215911    3.73392198   -1.20420826
 H                  4.45047665    3.15942235   -0.45152650
 H                  4.16604459    4.77239098   -1.06021137
 O(Iso=1)           4.41121242    3.32736626   -2.49606063
 C                  5.82208849    3.54088163   -2.58954804
 O                  6.36204049    4.47226457   -1.93797440
 O                  6.61938308    2.69600577   -3.42345820
 C                  7.93732767    2.59448167   -2.87791737
 H                  8.53390472    1.96230184   -3.50189211
 H                  8.37934438    3.56772334   -2.82973171
 H                  7.88488825    2.17745425   -1.89392640
 O                 -4.01842872    3.44269579    0.06418999
 C                 -4.32879203    2.85001266    1.32803386
 H                 -4.20306786    3.57672913    2.10326066
 H                 -5.34225400    2.50685694    1.32179010
 H                 -3.67328397    2.02297587    1.50472379

