%nprocshared=20
%mem=80GB
%chk=E20.chk
# opt freq scrf=(smd,solvent=thf) def2svp m062x

Title Card Required

0 1
 C(Iso=4)           1.67716425    4.30466353   -0.31323826
 H                  2.13627760    5.09660638    0.24078473
 C(Iso=3)           2.43275415    3.50398210   -1.10352944
 H                  1.97364073    2.71203945   -1.65755266
 C(Iso=2)           3.95215911    3.73392198   -1.20420826
 H                  4.45047665    3.15942235   -0.45152650
 H                  4.16604459    4.77239098   -1.06021137
 O(Iso=1)           4.41121242    3.32736626   -2.49606063
 C                  5.82208849    3.54088163   -2.58954804
 O                  6.36204049    4.47226457   -1.93797440
 O                  6.61938308    2.69600577   -3.42345820
 C                  7.93732767    2.59448167   -2.87791737
 C                  8.79595259    1.68461537   -3.77597448
 H                  8.81788718    2.08198196   -4.76921094
 H                  9.79216042    1.63835020   -3.38825101
 H                  8.37438693    0.70133434   -3.79443595
 C                  8.57350126    3.99522203   -2.80856605
 H                  8.06167015    4.65302657   -3.47955196
 H                  8.49622705    4.37302712   -1.81047186
 H                  9.60462314    3.93285366   -3.08748869
 C                  7.86185411    1.99427398   -1.46170606
 H                  7.05612057    1.29180197   -1.41451996
 H                  8.78203196    1.49730327   -1.23544771
 H                  7.69497040    2.77668949   -0.75115994
 C                  0.15775994    4.07472085   -0.21255606
 C                 -0.19242318    3.63126894    1.19359661
 C                 -0.57057443    5.35035860   -0.58388046
 H                 -0.10943103    3.26448822   -0.93958671
 C                  0.07623487    4.73223369    2.19931447
 H                  0.40731367    2.72302081    1.46146451
 H                 -1.27599574    3.34436126    1.23511594
 C                 -0.30353221    6.45146602    0.42194857
 H                 -0.24476389    5.68552735   -1.60273044
 H                 -1.67315157    5.14914758   -0.63192163
 C                 -0.65145338    6.00829801    1.82826750
 H                  1.17896869    4.93249496    2.24661588
 H                 -0.24926369    4.39734145    3.21839741
 H                 -0.90540928    7.35853123    0.15441808
 H                  0.77942709    6.74084279    0.37944955
 H                 -0.38283383    6.81865487    2.55466320
 H                 -1.75821085    5.84152274    1.90345099

