%mem=80GB
%nprocshared=20
%chk=E23.chk
# def2svp m062x

T

0 1
 C                  3.17009300    2.06770800    0.10450700
 C                  1.88181400    1.56319800    0.24535000
 C                  1.64743700    0.17954000    0.18677100
 C                  2.73515500   -0.67995500   -0.01987300
 C                  4.01803800   -0.15656900   -0.15624300
 C                  4.25559300    1.21324400   -0.09654700
 H                  3.33934900    3.14470700    0.14925600
 H                  1.05110400    2.25395700    0.39531500
 H                  2.57959500   -1.75861100   -0.07290900
 C(Iso=4)           0.30395300   -0.41343400    0.32631700
 H                  0.25499000   -1.49772100    0.17799200
 C(Iso=3)          -0.82370300    0.24378200    0.61906200
 H                 -0.82503000    1.32670000    0.77835800
 C(Iso=2)          -2.14033600   -0.43819700    0.78586500
 H                 -2.48816800   -0.37794100    1.82981700
 H                 -2.08563700   -1.50101200    0.50757500
 O(Iso=1)          -3.08949000    0.23380400   -0.04981700
 C                 -4.33687200   -0.21433900    0.02344900
 O                 -4.71241100   -1.12208200    0.71574400
 O                 -5.09639500    0.50110600   -0.79239500
 C                 -6.46822200    0.12595600   -0.84584500
 H                 -6.94170300    0.80869600   -1.55857200
 H                 -6.57292400   -0.91093100   -1.19278300
 H                 -6.93842900    0.22799500    0.14152000
 H                  5.26846900    1.60116100   -0.20707100
 Cl                 5.35806200   -1.24501300   -0.41021300

