%mem=80GB
%nprocshared=20
%chk=E25.chk
# def2svp m062x

T

0 1
 C                 -3.95761000   -1.75821400    0.05484600
 C                 -2.64124400   -1.36659100    0.27571900
 C                 -2.24347200   -0.02725100    0.13151800
 C                 -3.23679200    0.88608400   -0.23960900
 C                 -4.55744300    0.52260700   -0.46331300
 C                 -4.91869100   -0.81386600   -0.31505400
 H                 -4.23723500   -2.80586800    0.17295000
 H                 -1.90160100   -2.11282800    0.57067200
 C(Iso=4)          -0.86752600    0.45195900    0.34129700
 H                 -0.72696600    1.53292400    0.25339700
 C(Iso=3)           0.19699600   -0.30822100    0.62280800
 H                  0.11665500   -1.39683700    0.70661700
 C(Iso=2)           1.55095600    0.26969000    0.86539600
 H                  1.87567500    0.10166100    1.90517000
 H                  1.56573400    1.35297000    0.67657400
 O(Iso=1)           2.47487300   -0.38693300   -0.01078300
 C                  3.73331000    0.02633100    0.07318700
 O                  4.13819000    0.88313000    0.81249200
 O                  4.46756500   -0.65608900   -0.79278200
 C                  5.84374800   -0.29777000   -0.84863500
 H                  6.30040700   -0.95884800   -1.59209000
 H                  5.95754600    0.75033000   -1.15739400
 H                  6.32399900   -0.44144300    0.12861900
 H                 -5.95271900   -1.11636900   -0.48757800
 H                 -5.27632100    1.29100900   -0.75007100
 F                 -2.90039900    2.17487700   -0.38747100

