%mem=80GB
%nprocshared=20
%chk=E26.chk
# def2svp m062x

T

0 1
 C                 -3.75792500   -1.25184800    0.38396900
 C                 -2.42303200   -0.87304900    0.46575600
 C                 -2.00210300    0.39561400    0.03175800
 C                 -2.96487000    1.27555000   -0.48482700
 C                 -4.30685100    0.91300200   -0.57275500
 C                 -4.68008900   -0.34979500   -0.13616700
 H                 -4.09608300   -2.23478200    0.71448700
 H                 -1.69905500   -1.58230800    0.87000500
 C(Iso=4)          -0.59621400    0.83527500    0.08711200
 H                 -0.40724900    1.82896100   -0.33459900
 C(Iso=3)           0.43796500    0.15278500    0.59224000
 H                  0.30575900   -0.84474400    1.02408300
 C(Iso=2)           1.82595600    0.69921100    0.62920500
 H                  2.17349400    0.84016500    1.66509700
 H                  1.89282800    1.66867300    0.11328100
 O(Iso=1)           2.68793100   -0.24895600   -0.01273300
 C                  3.98317400    0.03636200    0.02462800
 O                  4.46919000    1.01402500    0.52709200
 O                  4.65226600   -0.93231600   -0.58318500
 C                  6.06389600   -0.76211400   -0.64030200
 H                  6.45790200   -1.65127900   -1.14266800
 H                  6.32375600    0.13831700   -1.21376700
 H                  6.48683100   -0.68114600    0.37006000
 H                 -5.06102100    1.59071800   -0.97460800
 H                 -2.65366600    2.26495800   -0.82694100
 F                 -5.96422700   -0.71394600   -0.22194900

