%mem=80GB
%nprocshared=20
%chk=E27.chk
# def2svp m062x

T

0 1
 C                 -3.47377400   -2.25977200    0.04863600
 C                 -2.21248000   -1.68837100    0.16011800
 C                 -2.01651500   -0.29858700    0.07532700
 C                 -3.16176000    0.48825600   -0.13855400
 C                 -4.43460200   -0.07018500   -0.25218100
 C                 -4.59142200   -1.44888900   -0.15693300
 H                 -3.58555600   -3.34272100    0.11681200
 H                 -1.34615900   -2.33492900    0.30721900
 C(Iso=4)          -0.67619800    0.30444100    0.19570500
 H                 -0.60075200    1.36366000   -0.06279400
 C(Iso=3)           0.43159600   -0.32708600    0.60181800
 H                  0.41819800   -1.38415900    0.88566200
 C(Iso=2)           1.74714900    0.36452000    0.73617000
 H                  2.07121400    0.39436400    1.78888300
 H                  1.70036700    1.39867000    0.36525000
 O(Iso=1)           2.71424300   -0.37788500   -0.01598800
 C                  3.96145200    0.07106500    0.05874900
 O                  4.31879200    1.03479900    0.68161900
 O                  4.74468100   -0.71585800   -0.66370500
 C                  6.12221200   -0.35849100   -0.68540600
 H                  6.62190900   -1.10928500   -1.30577200
 H                  6.25776700    0.64029100   -1.12216600
 H                  6.54109100   -0.37013700    0.32980200
 H                 -5.29209200    0.58352200   -0.41464300
 H                 -5.58640800   -1.88707900   -0.24818300
 Cl                -3.03501500    2.22693700   -0.26565700

