%mem=80GB
%nprocshared=20
%chk=E28.chk
# def2svp m062x

T

0 1
 C                 -3.48905900    1.38290700   -0.04907800
 C                 -2.15325500    1.00512200   -0.19212900
 C                 -1.76796400   -0.34144100   -0.10903500
 C                 -2.75315600   -1.31017500    0.12208800
 C                 -4.10011300   -0.96147200    0.26644200
 C                 -4.45089100    0.38833400    0.17640200
 H                 -1.40308600    1.77939500   -0.37011700
 C(Iso=4)          -0.36762800   -0.78101400   -0.26131400
 H                 -0.20498500   -1.85890400   -0.14730800
 C(Iso=3)           0.68991000   -0.00740300   -0.53312900
 H                  0.58618600    1.07567600   -0.65411300
 C(Iso=2)           2.06249200   -0.55562300   -0.73517700
 H                  2.39844000   -0.41134800   -1.77470100
 H                  2.10546900   -1.63226600   -0.51280400
 O(Iso=1)           2.95853000    0.15349700    0.13002000
 C                  4.24652700   -0.12152400   -0.03052600
 O                  4.69872100   -0.92030100   -0.80689700
 O                  4.95274200    0.62970300    0.80178900
 C                  6.36410500    0.46088700    0.73240500
 H                  6.79054300    1.15503300    1.46370000
 H                  6.64511900   -0.57061500    0.98468700
 H                  6.73352700    0.70158300   -0.27367100
 H                 -5.50000200    0.67635000    0.28577400
 H                 -2.46020700   -2.36198000    0.18813300
 C                 -5.13891500   -2.02481100    0.50756600
 H                 -5.17992300   -2.73296700   -0.33383300
 H                 -4.90383600   -2.60850800    1.41019800
 H                 -6.13755900   -1.58609700    0.63367400
 C                 -3.87947600    2.83538600   -0.13355100
 H                 -3.44051900    3.40892000    0.69702900
 H                 -3.51490500    3.28789800   -1.06753800
 H                 -4.96967500    2.95959400   -0.09419600

