%mem=80GB
%nprocshared=20
%chk=E29.chk
# def2svp m062x

T

0 1
 C                  2.58991000   -0.94524900   -0.48263100
 C                  1.23515400   -0.64143900   -0.51184100
 C                  0.76701800    0.59799500   -0.04326600
 C                  1.69781500    1.52045500    0.45681900
 C                  3.05750000    1.22459400    0.48706200
 C                  3.50068800   -0.00976400    0.01606300
 H                  0.53402800   -1.37955000   -0.90371000
 C(Iso=4)          -0.65956100    0.96956400   -0.05665200
 H                 -0.89047700    1.93985600    0.39669200
 C(Iso=3)          -1.66330400    0.24898000   -0.56966900
 H                 -1.48593800   -0.72684100   -1.03336800
 C(Iso=2)          -3.07545600    0.73043400   -0.58502200
 H                 -3.42572500    0.89326100   -1.61683500
 H                 -3.18465400    1.67735500   -0.03617700
 O(Iso=1)          -3.89317700   -0.27793600    0.01926800
 C                 -5.20021600   -0.04671100   -0.01226300
 O                 -5.72452500    0.92517700   -0.48630300
 O                 -5.82921800   -1.05999000    0.56394600
 C                 -7.24683800   -0.94688200    0.62651700
 H                 -7.60450000   -1.86194900    1.10912000
 H                 -7.54034600   -0.07042900    1.22014200
 H                 -7.67497200   -0.86013400   -0.38114300
 H                  1.34705300    2.48714100    0.82388400
 H                  2.94382600   -1.90893800   -0.85286900
 H                  3.77114400    1.95413300    0.87300800
 C                  4.95936300   -0.35827100    0.08786000
 F                  5.26751900   -0.98954100    1.22915600
 F                  5.73806700    0.72546900    0.02834500
 F                  5.32924600   -1.16972200   -0.90771100

