%mem=80GB
%nprocshared=20
%chk=E31.chk
# def2svp m062x

T

0 1
 C                 -3.73571500   -1.21410900    0.38018300
 C                 -2.39672000   -0.85292900    0.44997800
 C                 -1.97042200    0.41507800    0.01751500
 C                 -2.93763700    1.29631200   -0.48235900
 C                 -4.28189600    0.93079400   -0.54793400
 C                 -4.70596000   -0.33005600   -0.11938100
 H                 -1.67191100   -1.56857300    0.84269700
 C(Iso=4)          -0.56269700    0.84851100    0.06386500
 H                 -0.36911700    1.83699300   -0.36851000
 C(Iso=3)           0.46904300    0.16745100    0.57695700
 H                  0.33099600   -0.82383900    1.02119000
 C(Iso=2)           1.85931400    0.70787300    0.61026500
 H                  2.20615700    0.85887800    1.64497900
 H                  1.93123700    1.67133800    0.08386800
 O(Iso=1)           2.71974900   -0.25066400   -0.01923200
 C                  4.01625900    0.02651500    0.02455000
 O                  4.50570800    1.00535500    0.52153200
 O                  4.68354700   -0.95197500   -0.56999900
 C                  6.09644100   -0.79095900   -0.61932500
 H                  6.48804900   -1.68609400   -1.11294400
 H                  6.36584500    0.10382100   -1.19712800
 H                  6.51383600   -0.70588700    0.39302300
 H                 -2.62849100    2.28690100   -0.82479400
 H                 -4.04317400   -2.20623300    0.72055600
 H                 -5.01466200    1.63954900   -0.94094800
 C                 -6.14976800   -0.74524700   -0.19819900
 H                 -6.79005100    0.09326900   -0.50258800
 H                 -6.28452100   -1.55905300   -0.92746000
 H                 -6.50767300   -1.11819400    0.77295600

