%chk=D:\Quantom Chemistry\Data\Mechanic study\Data-part1\N10.chk
# freq def2svp rm062x

Title Card Required

0 1
 C(Iso=2)          -0.00000000    0.49536060    0.00000000
 C(Iso=3)           1.37049666    0.15341786    0.00000000
 C                  0.93126048   -2.02024972    0.00000000
 C                 -0.86356088   -0.60326787   -0.00000000
 C(Iso=5)           1.05738936    2.32440512    0.00000000
 H                  1.26810024   -3.05979078    0.00000000
 N(Iso=1)          -0.16219321    1.85524958   -0.00000000
 N(Iso=4)           2.01994385    1.35300261    0.00000000
 H                  3.02665490    1.49647099    0.00000000
 N                 -0.39938033   -1.82969198    0.00000000
 N                  1.86257505   -1.07940964    0.00000000
 Cl                -2.57880425   -0.35346645   -0.00000000
 H                  1.32478570    3.38019942    0.00000000

