%chk=D:\Quantom Chemistry\Data\Mechanic study\Data-part1\N11.chk
# freq def2svp rm062x

Title Card Required

0 1
 C(Iso=3)           0.63099784   -0.43981132   -0.00001567
 C(Iso=2)           1.64446992    0.53502577    0.00015344
 C                  0.17713501    2.19243668    0.00034539
 C                 -0.68546741    0.05475291    0.00006012
 C(Iso=5)           2.46232494   -1.50188459   -0.00018875
 H                 -0.05194747    3.26190620    0.00050951
 N(Iso=4)           1.17083409   -1.70159565   -0.00018191
 N(Iso=1)           2.80861038   -0.17866730    0.00001073
 H                  3.75105778    0.20187651    0.00005523
 N                 -0.88162601    1.36698024    0.00022294
 N                  1.45695268    1.85366964    0.00036227
 S                 -2.03204593   -1.06511056   -0.00018604
 C                 -3.42203342    0.08871836   -0.00025285
 H                 -3.40492122    0.71796049   -0.89802685
 H                 -4.32627696   -0.53331792   -0.00040680
 H                 -3.40513132    0.71781277    0.89762991
 H                  3.22199476   -2.28260447   -0.00029278

