%chk=D:\Quantom Chemistry\Data\Mechanic study\Data-part1\N16.chk
# freq def2svp rm062x

Title Card Required

0 1
 C(Iso=3)           0.87116636   -0.44008234    0.00000940
 C(Iso=2)           0.92586782    0.98203860   -0.00005064
 C                  2.14909766    1.66428008   -0.00010284
 C                  3.31648211    0.91706147   -0.00019807
 C                  3.28011432   -0.50233036   -0.00010819
 C                  2.06807783   -1.17984842    0.00007814
 C(Iso=4)          -0.51521972   -0.79917078   -0.00001289
 C(Iso=5)          -1.22097494    0.38389370    0.00002542
 H                  2.18673245    2.75442937   -0.00009426
 H                  4.27153518    1.44102512   -0.00024386
 H                  2.06862314   -2.27063997    0.00020989
 H                 -0.94599318   -1.79667992    0.00000871
 N(Iso=1)          -0.36027170    1.44971017   -0.00000355
 H                 -0.65821198    2.41960868    0.00001770
 C                 -2.67240673    0.64552883    0.00007992
 O                 -3.14195592    1.75760515    0.00005975
 O                 -3.38889602   -0.47209598    0.00016101
 C                 -4.81388645   -0.31592640    0.00013478
 C                 -5.43366322   -1.69080607   -0.00026042
 H                 -5.10491596    0.26588255   -0.88703209
 H                 -5.10495974    0.26535144    0.88763821
 H                 -6.52847501   -1.60057582   -0.00047607
 H                 -5.13268133   -2.25631332   -0.89326014
 H                 -5.13305101   -2.25668952    0.89262446
 O                  4.39969243   -1.26754392    0.00000731
 C                  5.65376434   -0.63308339    0.00012585
 H                  6.40847524   -1.42852046    0.00000954
 H                  5.79683032   -0.00880281   -0.89754489
 H                  5.79675364   -0.00909811    0.89802021

