%chk=D:\Quantom Chemistry\Data\Mechanic study\Data-part1\N20.chk
# freq def2svp rm062x

Title Card Required

0 1
 C(Iso=3)          -0.62501400    0.80995837    0.00026540
 C(Iso=2)          -0.45150529   -0.60422683   -0.00012733
 C                 -1.54652313   -1.48680274   -0.00008754
 C                 -2.81188971   -0.92885922   -0.00025470
 C                 -3.00613177    0.47453833   -0.00004977
 C                 -1.93186238    1.34382765    0.00037310
 C(Iso=4)           0.68362812    1.38536490   -0.00036348
 C(Iso=5)           1.57437618    0.33158340   -0.00008145
 H                 -1.39674470   -2.56715855    0.00007973
 H                 -3.68413431   -1.58511131   -0.00027790
 H                 -4.02349825    0.86885330    0.00006631
 H                 -2.08528494    2.42453855    0.00068087
 H                  0.94600337    2.44115344   -0.00046337
 N(Iso=1)           0.88825183   -0.85815308    0.00020161
 H                  1.33516430   -1.76958838    0.00060992
 C                  3.03669717    0.35183107   -0.00020568
 O                  3.70834108   -0.65431444    0.00019809
 H                  3.49335197    1.36561040   -0.00050284

