%chk=D:\Quantom Chemistry\Data\Mechanic study\Data-part1\N21.chk
# freq def2svp rm062x

Title Card Required

0 1
 C(Iso=3)          -0.73625558   -0.20345358    0.00010463
 C(Iso=2)          -1.63447625    0.89212103    0.00008726
 C                 -3.02498175    0.72121856    0.00003237
 C                 -3.50503710   -0.57980431   -0.00008878
 C                 -2.62664316   -1.68466604    0.00010061
 C                 -1.25036001   -1.51314813    0.00008160
 C(Iso=4)           0.58971241    0.36415313   -0.00005005
 C(Iso=5)           0.43844503    1.73720958   -0.00010473
 H                 -3.69876039    1.57931038    0.00003734
 H                 -4.58249868   -0.75323407   -0.00021189
 H                 -3.04250296   -2.69370318    0.00015525
 H                 -0.57032139   -2.36502549    0.00020232
 N(Iso=1)          -0.88196508    2.04693874   -0.00005030
 H                 -1.25901732    2.98874732    0.00002829
 H                  1.20150821    2.51229271   -0.00029504
 C                  1.84957547   -0.38096122   -0.00002174
 O                  1.93648024   -1.58620603   -0.00031450
 O                  2.92055851    0.42533109    0.00013303
 C                  4.18667835   -0.21833144    0.00011055
 H                  4.30519947   -0.84740301   -0.89312488
 H                  4.93831431    0.57806506   -0.00033567
 H                  4.30557985   -0.84664698    0.89383773

