%mem=80GB
%nprocshared=20
%chk=N31.chk
# def2svp m062x

T

0 1
 C(Iso=3)          -0.35603500   -0.21171100   -0.00008600
 C(Iso=2)          -1.18916900    0.93033400   -0.00001100
 C                 -2.58604300    0.83945900    0.00006100
 C                 -3.13667200   -0.43272900    0.00005300
 C                 -2.32208000   -1.58431900    0.00001800
 C                 -0.93927900   -1.49064800   -0.00003400
 C(Iso=4)           1.00659200    0.26811300   -0.00011800
 C(Iso=5)           0.93686900    1.64546200   -0.00008400
 H                 -3.21554700    1.73051000    0.00017800
 H                 -4.22180700   -0.54536800    0.00018300
 H                 -2.79464900   -2.56747800    0.00009900
 H                 -0.29810600   -2.37119900   -0.00002400
 N(Iso=1)          -0.36774500    2.04127800   -0.00003100
 H                 -0.68614900    2.99997700   -0.00000400
 C                  2.22128400   -0.56497200   -0.00006200
 O                  2.15382700   -1.77451000   -0.00005200
 H                  1.74003000    2.37927800   -0.00001400
 C                  3.55799300    0.15019300    0.00014900
 H                  3.64952500    0.79198500   -0.88826100
 H                  3.64971700    0.79041200    0.88969700
 H                  4.35981700   -0.59606700   -0.00055000

