%chk=D:\Quantom Chemistry\Data\Mechanic study\Data-part1\N5.chk
# freq def2svp rm062x

Title Card Required

0 1
 C(Iso=2)           0.70326644    0.76809360    0.00002695
 C(Iso=3)           0.47903882   -0.62800133    0.00003818
 C                  1.56766317   -1.51103515    0.00002539
 C                  2.84587636   -0.96740436    0.00000100
 C                  3.05180094    0.42732498   -0.00002935
 C                  1.98705652    1.32065821   -0.00002961
 C(Iso=5)          -1.45016361    0.29813811   -0.00000937
 H                  1.40321050   -2.58946991    0.00002485
 H                  3.71206835   -1.63108494    0.00000342
 H                  4.07210314    0.81452958   -0.00005975
 H                  2.14613069    2.39949793   -0.00005621
 N(Iso=1)          -0.55766059    1.32573704    0.00003284
 N(Iso=4)          -0.88142734   -0.87780094   -0.00003878
 H                 -0.78549205    2.31503080    0.00025113
 C                 -2.94168098    0.46874120   -0.00003143
 H                 -3.23012624    1.06227200    0.88646714
 H                 -3.23001722    1.06220772   -0.88660544
 O                 -3.57507366   -0.77331769   -0.00000288
 H                 -2.87081826   -1.44108590    0.00008888

