%chk=D:\Quantom Chemistry\Data\Mechanic study\Data-part1\N8.chk
# freq def2svp rm062x

Title Card Required

0 1
 C(Iso=2)          -3.13468569   -0.62593068    0.04823154
 C(Iso=3)          -3.06572232    0.74458028   -0.05026837
 C(Iso=5)          -1.03536746    0.05029283   -0.00718932
 N(Iso=4)          -1.76220898    1.14846847   -0.08325377
 N(Iso=1)          -1.83520111   -1.04830363    0.07407912
 H                 -1.53334391   -2.01397132    0.15194907
 H                 -3.89144677    1.45164494   -0.09910042
 H                 -3.97064305   -1.31693145    0.10112039
 C                  0.43615796    0.00543421   -0.00408744
 C                  1.14510525   -1.20238836   -0.05305297
 C                  1.14804332    1.21283664    0.04551010
 C                  2.53896014   -1.20111564   -0.04687521
 H                  0.61690677   -2.15642732   -0.10674344
 C                  2.53959462    1.20958575    0.04977792
 H                  0.58917438    2.14885516    0.08265164
 C                  3.24088418    0.00288176    0.00499380
 H                  3.07908385   -2.14862699   -0.08739848
 H                  3.08214324    2.15582968    0.09058624
 H                  4.33217619    0.00141269    0.00891730

